units           real
atom_style      full
bond_style      harmonic
angle_style     harmonic
dihedral_style  charmm
pair_style hybrid lj/cut/coul/long 15.0 15.0
pair_modify mix arithmetic
special_bonds lj/coul 0.0 0.0 0.5
kspace_style ewald/electrode 1.0e-4

